p cnf 250 400
-6 17 25 51 52 0
-6 17 25 51 -52 0
-6 17 25 -51 52 0
-6 17 25 -51 -52 0
-17 25 41 53 54 0
-17 25 41 53 -54 0
-17 25 41 -53 54 0
-17 25 41 -53 -54 0
-17 25 -41 55 56 0
-17 25 -41 55 -56 0
-17 25 -41 -55 56 0
-17 25 -41 -55 -56 0
-6 29 40 57 58 0
-6 29 40 57 -58 0
-6 29 40 -57 58 0
-6 29 40 -57 -58 0
-25 29 -40 59 60 0
-25 29 -40 59 -60 0
-25 29 -40 -59 60 0
-25 29 -40 -59 -60 0
-25 -29 37 61 62 0
-25 -29 37 61 -62 0
-25 -29 37 -61 62 0
-25 -29 37 -61 -62 0
-6 -29 -37 63 64 0
-6 -29 -37 63 -64 0
-6 -29 -37 -63 64 0
-6 -29 -37 -63 -64 0
6 12 39 65 66 0
6 12 39 65 -66 0
6 12 39 -65 66 0
6 12 39 -65 -66 0
10 -39 47 67 68 0
10 -39 47 67 -68 0
10 -39 47 -67 68 0
10 -39 47 -67 -68 0
-10 12 47 69 70 0
-10 12 47 69 -70 0
-10 12 47 -69 70 0
-10 12 47 -69 -70 0
6 12 -39 71 72 0
6 12 -39 71 -72 0
6 12 -39 -71 72 0
6 12 -39 -71 -72 0
6 -12 24 73 74 0
6 -12 24 73 -74 0
6 -12 24 -73 74 0
6 -12 24 -73 -74 0
-12 -24 -39 75 76 0
-12 -24 -39 75 -76 0
-12 -24 -39 -75 76 0
-12 -24 -39 -75 -76 0
-12 -24 38 77 78 0
-12 -24 38 77 -78 0
-12 -24 38 -77 78 0
-12 -24 38 -77 -78 0
-22 -24 -38 79 80 0
-22 -24 -38 79 -80 0
-22 -24 -38 -79 80 0
-22 -24 -38 -79 -80 0
16 -38 39 81 82 0
16 -38 39 81 -82 0
16 -38 39 -81 82 0
16 -38 39 -81 -82 0
-11 -16 -38 83 84 0
-11 -16 -38 83 -84 0
-11 -16 -38 -83 84 0
-11 -16 -38 -83 -84 0
11 -16 42 85 86 0
11 -16 42 85 -86 0
11 -16 42 -85 86 0
11 -16 42 -85 -86 0
5 -16 -42 87 88 0
5 -16 -42 87 -88 0
5 -16 -42 -87 88 0
5 -16 -42 -87 -88 0
-5 -42 -45 89 90 0
-5 -42 -45 89 -90 0
-5 -42 -45 -89 90 0
-5 -42 -45 -89 -90 0
-5 -10 -42 91 92 0
-5 -10 -42 91 -92 0
-5 -10 -42 -91 92 0
-5 -10 -42 -91 -92 0
4 42 45 93 94 0
4 42 45 93 -94 0
4 42 45 -93 94 0
4 42 45 -93 -94 0
4 -5 45 95 96 0
4 -5 45 95 -96 0
4 -5 45 -95 96 0
4 -5 45 -95 -96 0
3 -4 45 97 98 0
3 -4 45 97 -98 0
3 -4 45 -97 98 0
3 -4 45 -97 -98 0
-3 -30 33 99 100 0
-3 -30 33 99 -100 0
-3 -30 33 -99 100 0
-3 -30 33 -99 -100 0
-4 -30 -33 101 102 0
-4 -30 -33 101 -102 0
-4 -30 -33 -101 102 0
-4 -30 -33 -101 -102 0
-3 -4 23 103 104 0
-3 -4 23 103 -104 0
-3 -4 23 -103 104 0
-3 -4 23 -103 -104 0
-3 -23 -31 105 106 0
-3 -23 -31 105 -106 0
-3 -23 -31 -105 106 0
-3 -23 -31 -105 -106 0
11 -14 30 107 108 0
11 -14 30 107 -108 0
11 -14 30 -107 108 0
11 -14 30 -107 -108 0
-11 -14 30 109 110 0
-11 -14 30 109 -110 0
-11 -14 30 -109 110 0
-11 -14 30 -109 -110 0
14 -19 -23 111 112 0
14 -19 -23 111 -112 0
14 -19 -23 -111 112 0
14 -19 -23 -111 -112 0
14 19 -25 113 114 0
14 19 -25 113 -114 0
14 19 -25 -113 114 0
14 19 -25 -113 -114 0
14 19 21 115 116 0
14 19 21 115 -116 0
14 19 21 -115 116 0
14 19 21 -115 -116 0
13 -20 -21 117 118 0
13 -20 -21 117 -118 0
13 -20 -21 -117 118 0
13 -20 -21 -117 -118 0
-13 19 -20 119 120 0
-13 19 -20 119 -120 0
-13 19 -20 -119 120 0
-13 19 -20 -119 -120 0
15 20 44 121 122 0
15 20 44 121 -122 0
15 20 44 -121 122 0
15 20 44 -121 -122 0
15 20 48 123 124 0
15 20 48 123 -124 0
15 20 48 -123 124 0
15 20 48 -123 -124 0
20 -21 -48 125 126 0
20 -21 -48 125 -126 0
20 -21 -48 -125 126 0
20 -21 -48 -125 -126 0
15 -27 -48 127 128 0
15 -27 -48 127 -128 0
15 -27 -48 -127 128 0
15 -27 -48 -127 -128 0
-15 -21 34 129 130 0
-15 -21 34 129 -130 0
-15 -21 34 -129 130 0
-15 -21 34 -129 -130 0
-8 -15 -34 131 132 0
-8 -15 -34 131 -132 0
-8 -15 -34 -131 132 0
-8 -15 -34 -131 -132 0
11 -13 -15 133 134 0
11 -13 -15 133 -134 0
11 -13 -15 -133 134 0
11 -13 -15 -133 -134 0
-11 -13 -34 135 136 0
-11 -13 -34 135 -136 0
-11 -13 -34 -135 136 0
-11 -13 -34 -135 -136 0
8 30 -37 137 138 0
8 30 -37 137 -138 0
8 30 -37 -137 138 0
8 30 -37 -137 -138 0
8 -30 -34 139 140 0
8 -30 -34 139 -140 0
8 -30 -34 -139 140 0
8 -30 -34 -139 -140 0
8 13 35 141 142 0
8 13 35 141 -142 0
8 13 35 -141 142 0
8 13 35 -141 -142 0
1 13 23 143 144 0
1 13 23 143 -144 0
1 13 23 -143 144 0
1 13 23 -143 -144 0
1 -23 -35 145 146 0
1 -23 -35 145 -146 0
1 -23 -35 -145 146 0
1 -23 -35 -145 -146 0
-1 10 40 147 148 0
-1 10 40 147 -148 0
-1 10 40 -147 148 0
-1 10 40 -147 -148 0
-1 -10 -35 149 150 0
-1 -10 -35 149 -150 0
-1 -10 -35 -149 150 0
-1 -10 -35 -149 -150 0
-1 -35 47 151 152 0
-1 -35 47 151 -152 0
-1 -35 47 -151 152 0
-1 -35 47 -151 -152 0
-40 43 -47 153 154 0
-40 43 -47 153 -154 0
-40 43 -47 -153 154 0
-40 43 -47 -153 -154 0
-43 -47 -48 155 156 0
-43 -47 -48 155 -156 0
-43 -47 -48 -155 156 0
-43 -47 -48 -155 -156 0
27 -33 -47 157 158 0
27 -33 -47 157 -158 0
27 -33 -47 -157 158 0
27 -33 -47 -157 -158 0
-27 -33 -43 159 160 0
-27 -33 -43 159 -160 0
-27 -33 -43 -159 160 0
-27 -33 -43 -159 -160 0
-43 44 48 161 162 0
-43 44 48 161 -162 0
-43 44 48 -161 162 0
-43 44 48 -161 -162 0
-17 -44 48 163 164 0
-17 -44 48 163 -164 0
-17 -44 48 -163 164 0
-17 -44 48 -163 -164 0
-2 17 28 165 166 0
-2 17 28 165 -166 0
-2 17 28 -165 166 0
-2 17 28 -165 -166 0
-2 17 -28 167 168 0
-2 17 -28 167 -168 0
-2 17 -28 -167 168 0
-2 17 -28 -167 -168 0
22 -28 -44 169 170 0
22 -28 -44 169 -170 0
22 -28 -44 -169 170 0
22 -28 -44 -169 -170 0
2 -22 -28 171 172 0
2 -22 -28 171 -172 0
2 -22 -28 -171 172 0
2 -22 -28 -171 -172 0
26 31 46 173 174 0
26 31 46 173 -174 0
26 31 46 -173 174 0
26 31 46 -173 -174 0
2 26 -31 175 176 0
2 26 -31 175 -176 0
2 26 -31 -175 176 0
2 26 -31 -175 -176 0
2 26 -46 177 178 0
2 26 -46 177 -178 0
2 26 -46 -177 178 0
2 26 -46 -177 -178 0
-7 -26 28 179 180 0
-7 -26 28 179 -180 0
-7 -26 28 -179 180 0
-7 -26 28 -179 -180 0
-26 28 -41 181 182 0
-26 28 -41 181 -182 0
-26 28 -41 -181 182 0
-26 28 -41 -181 -182 0
-26 41 49 183 184 0
-26 41 49 183 -184 0
-26 41 49 -183 184 0
-26 41 49 -183 -184 0
36 41 -49 185 186 0
36 41 -49 185 -186 0
36 41 -49 -185 186 0
36 41 -49 -185 -186 0
-29 -36 -49 187 188 0
-29 -36 -49 187 -188 0
-29 -36 -49 -187 188 0
-29 -36 -49 -187 -188 0
18 -36 -49 189 190 0
18 -36 -49 189 -190 0
18 -36 -49 -189 190 0
18 -36 -49 -189 -190 0
-18 37 46 191 192 0
-18 37 46 191 -192 0
-18 37 46 -191 192 0
-18 37 46 -191 -192 0
-36 -37 46 193 194 0
-36 -37 46 193 -194 0
-36 -37 46 -193 194 0
-36 -37 46 -193 -194 0
9 -18 -46 195 196 0
9 -18 -46 195 -196 0
9 -18 -46 -195 196 0
9 -18 -46 -195 -196 0
-9 -18 32 197 198 0
-9 -18 32 197 -198 0
-9 -18 32 -197 198 0
-9 -18 32 -197 -198 0
31 -46 -50 199 200 0
31 -46 -50 199 -200 0
31 -46 -50 -199 200 0
31 -46 -50 -199 -200 0
-32 44 -50 201 202 0
-32 44 -50 201 -202 0
-32 44 -50 -201 202 0
-32 44 -50 -201 -202 0
-31 -44 -50 203 204 0
-31 -44 -50 203 -204 0
-31 -44 -50 -203 204 0
-31 -44 -50 -203 -204 0
-32 36 40 205 206 0
-32 36 40 205 -206 0
-32 36 40 -205 206 0
-32 36 40 -205 -206 0
-9 27 -32 207 208 0
-9 27 -32 207 -208 0
-9 27 -32 -207 208 0
-9 27 -32 -207 -208 0
-9 27 -40 209 210 0
-9 27 -40 209 -210 0
-9 27 -40 -209 210 0
-9 27 -40 -209 -210 0
16 43 50 211 212 0
16 43 50 211 -212 0
16 43 50 -211 212 0
16 43 50 -211 -212 0
3 18 -19 213 214 0
3 18 -19 213 -214 0
3 18 -19 -213 214 0
3 18 -19 -213 -214 0
-20 33 37 215 216 0
-20 33 37 215 -216 0
-20 33 37 -215 216 0
-20 33 37 -215 -216 0
9 34 42 217 218 0
9 34 42 217 -218 0
9 34 42 -217 218 0
9 34 42 -217 -218 0
-7 -22 -41 219 220 0
-7 -22 -41 219 -220 0
-7 -22 -41 -219 220 0
-7 -22 -41 -219 -220 0
-7 31 33 221 222 0
-7 31 33 221 -222 0
-7 31 33 -221 222 0
-7 31 33 -221 -222 0
21 34 43 223 224 0
21 34 43 223 -224 0
21 34 43 -223 224 0
21 34 43 -223 -224 0
7 49 50 225 226 0
7 49 50 225 -226 0
7 49 50 -225 226 0
7 49 50 -225 -226 0
-8 35 36 227 228 0
-8 35 36 227 -228 0
-8 35 36 -227 228 0
-8 35 36 -227 -228 0
-8 22 38 229 230 0
-8 22 38 229 -230 0
-8 22 38 -229 230 0
-8 22 38 -229 -230 0
9 39 -45 231 232 0
9 39 -45 231 -232 0
9 39 -45 -231 232 0
9 39 -45 -231 -232 0
21 24 -45 233 234 0
21 24 -45 233 -234 0
21 24 -45 -233 234 0
21 24 -45 -233 -234 0
1 3 10 235 236 0
1 3 10 235 -236 0
1 3 10 -235 236 0
1 3 10 -235 -236 0
-14 29 35 237 238 0
-14 29 35 237 -238 0
-14 29 35 -237 238 0
-14 29 35 -237 -238 0
23 32 50 239 240 0
23 32 50 239 -240 0
23 32 50 -239 240 0
23 32 50 -239 -240 0
4 5 18 241 242 0
4 5 18 241 -242 0
4 5 18 -241 242 0
4 5 18 -241 -242 0
-2 -27 32 243 244 0
-2 -27 32 243 -244 0
-2 -27 32 -243 244 0
-2 -27 32 -243 -244 0
7 24 49 245 246 0
7 24 49 245 -246 0
7 24 49 -245 246 0
7 24 49 -245 -246 0
5 7 38 247 248 0
5 7 38 247 -248 0
5 7 38 -247 248 0
5 7 38 -247 -248 0
16 -19 22 249 250 0
16 -19 22 249 -250 0
16 -19 22 -249 250 0
16 -19 22 -249 -250 0
